1617256800
1617291000
1617688800
1617723000
1617775200
1617809400
1617861600
1617895800
1617949800
1617982200
1618380000
1618414200
1618471800
1618476840
1618552800
1618587000
1618812000
1618846200
1618898400
1618932600
1618984800
1619019000
1619071200
1619105400
1619157600
1619191800
1619416800
1619451000
1619503200
1619537400
1619592300
1619623800
1619676000
1619710200
1619762400
1619796600
